    units           real
    atom_style      full
    bond_style      quartic
    angle_style     harmonic
    pair_style      lj/cut 2.5
