package omp 2
package gpu 0 neigh no #omp 2
units           real
atom_style      full
bond_style      hybrid quartic #harmonic 
# angle_style     hybrid harmonic
pair_style      hybrid lj/cut/gpu 11 eam/alloy/gpu
special_bonds lj 1 1 1 #angle yes
boundary p p p
lattice fcc 3.615 orient x 1 1 -2 orient y -1 1 0 orient z 1 1 1  
region box block 0 39 0 42 0 100
create_box 7 box bond/types  1 extra/bond/per/atom 10 extra/special/per/atom 100
lattice fcc 3.615 orient x 1 1 -2 orient y -1 1 0 orient z 1 1 1
variable len equal 11
variable truelen equal v_len*3.615
variable fixlen equal 0.5*v_truelen
region cu block INF INF INF INF 1 ${len} 
create_atoms 7 region cu units lattice#--------------------------------------------------1111111
region delcu block INF INF INF INF 60 INF units box
delete_atoms region delcu compress yes
#----------------------------------------------------------------------------------
variable sigma equal 4.570
variable rccut equal 1.343*v_sigma
variable epsilone equal 1.519*3
mass 1*6  55.565
mass 7 63.5
pair_coeff   1*6 1*6  lj/cut/gpu 1.519 ${sigma}
pair_coeff * * eam/alloy/gpu Cu_mishin1.eam.alloy NULL NULL NULL NULL NULL NULL Cu
pair_coeff 1*6 7 lj/cut/gpu ${epsilone} 4.570
bond_coeff   1   quartic   5.901 -3.326 0 ${rccut} 102.082 
reset_atom_ids #sort yes
#----------------------------------------------------------------------------------
write_data initiate-cu.data   
group cu region cu 
neighbor 2 bin
neigh_modify every 5 delay 0 check yes one 1000 page 10000
reset_timestep 0    
velocity all create 300 1238123 dist gaussian mom yes
#-----------------------------------------------------------------------
timestep 1
thermo 1
variable Tdamp equal 100.0*dt
variable Pdamp equal 1000.0*dt
fix   fxnpt all npt temp 300.0 300.0 ${Tdamp} aniso 1 1 ${Pdamp} #y 1 1 5000#drag 1.0
thermo_style custom  step temp press pxx pyy pzz
dump                1 all atom 1000 Only-Cu.atom
run                 10000
#------------6 guding设置--------------------------------
region bound block INF INF INF INF INF ${fixlen} units box
group bound region bound
region thermo block INF INF INF INF ${fixlen}  ${truelen}  units box
group thermo region thermo 
velocity bound set 0 0 0 sum no 
fix bound bound setforce 0 0 0
run 1
#------------------------------------------------------
run 10000
write_data Only-Cu.data 
write_restart Only-Cu.restart
